Version identifier: 12.10.0.0 | 2019-11-26 | 843d4de
CPXPARAM_WorkMem                                 28672
Tried aggregator 2 times.
MIP Presolve eliminated 24 rows and 0 columns.
MIP Presolve added 48 rows and 0 columns.
Aggregator did 60 substitutions.
Reduced MIP has 126 rows, 110 columns, and 502 nonzeros.
Reduced MIP has 110 binaries, 0 generals, 0 SOSs, and 0 indicators.
Presolve time = 0,00 sec. (1,14 ticks)
Found incumbent of value 483,000000 after 0,00 sec. (1,29 ticks)
Probing time = 0,00 sec. (0,80 ticks)
Tried aggregator 1 time.
Detecting symmetries...
Reduced MIP has 126 rows, 110 columns, and 502 nonzeros.
Reduced MIP has 110 binaries, 0 generals, 0 SOSs, and 0 indicators.
Presolve time = 0,00 sec. (0,44 ticks)
Probing time = 0,00 sec. (0,79 ticks)
Clique table members: 411.
MIP emphasis: balance optimality and feasibility.
MIP search method: dynamic search.
Parallel mode: deterministic, using up to 16 threads.
Root relaxation solution time = 0,00 sec. (0,28 ticks)

        Nodes                                         Cuts/
   Node  Left     Objective  IInf  Best Integer    Best Bound    ItCnt     Gap

*     0+    0                          483,0000        0,0000           100,00%
*     0+    0                          463,0000        0,0000           100,00%
      0     0      264,0000   110      463,0000      264,0000       39   42,98%
*     0+    0                          461,0000      264,0000            42,73%
      0     0      302,9222   110      461,0000      Cuts: 91      100   34,29%
      0     0      305,5600   110      461,0000      Cuts: 87      113   33,72%
      0     0      306,3100   110      461,0000  ZeroHalf: 20      124   33,56%
      0     0      307,4067   110      461,0000  ZeroHalf: 22      137   33,32%
*     0+    0                          446,0000      307,4067            31,07%
      0     0      307,7873   110      446,0000  ZeroHalf: 36      148   30,99%
Detecting symmetries...
      0     0      308,0950   110      446,0000  ZeroHalf: 25      157   30,92%
      0     0      308,2671   110      446,0000   ZeroHalf: 3      166   30,88%
*     0+    0                          442,0000      308,2671            30,26%
      0     0      308,3208   110      442,0000   ZeroHalf: 3      169   30,24%
      0     0      308,4127   110      442,0000   ZeroHalf: 7      172   30,22%
*     0+    0                          441,0000      308,4127            30,07%
*     0+    0                          425,0000      308,4127            27,43%
      0     0        cutoff            425,0000      425,0000      172    0,00%
Elapsed time = 0,05 sec. (31,57 ticks, tree = 0,01 MB, solutions = 7)

Clique cuts applied:  13
Cover cuts applied:  18
Implied bound cuts applied:  43
Flow cuts applied:  1
Zero-half cuts applied:  13
Gomory fractional cuts applied:  3

Root node processing (before b&c):
  Real time             =    0,05 sec. (31,59 ticks)
Parallel b&c, 16 threads:
  Real time             =    0,00 sec. (0,00 ticks)
  Sync time (average)   =    0,00 sec.
  Wait time (average)   =    0,00 sec.
                          ------------
Total (root+branch&cut) =    0,05 sec. (31,59 ticks)
